
  32    1
  10

   0   0   5 2 3 4 5 8 
   1   2  11 30 29 28 27 22 14 13 12 10 9 7 
   1   6   7 31 28 27 24 23 15 6 
   9   6   9 28 27 23 22 21 20 13 12 11 
   9  10   6 26 25 22 20 16 9 
   4   7   6 26 25 22 21 20 12 
   2   8   7 26 24 21 20 19 18 15 
   3   5   5 23 22 20 13 12 
   6   5   4 21 19 18 17 
   4   7   4 25 21 18 17 
   2   5   3 24 18 15 
  10   3   3 19 18 17 
   1   8   3 19 18 17 
  10   5   2 23 20 
   5   3   1 17 
   7   8   1 19 
   9   7   1 32
   9   7   1 32
   5   6   1 32
   4   6   1 32
   5   9   1 32
   2   5   1 32
   1   4   1 32
   1   6   1 32
   7   8   1 32
   3   5   1 32
   2   5   1 32
   2   5   1 32
   9   9   1 32
   1   5   1 32
   7   5   1 32
   0   0   0 
